% seed = 3010506

mint = 51;
% maxt = 221;

nActs = 42;
dur = [0,5,1,7,8,9,4,8,5,5,7,2,9,2,2,2,8,10,2,7,5,3,9,6,6,6,8,2,10,5,6,5,3,4,1,9,10,5,9,3,3,0];

nSkills = 4;
sreq = [| 0,0,0,0,
	| 7,3,0,4,
	| 3,2,1,4,
	| 2,0,3,6,
	| 0,5,4,0,
	| 2,3,3,4,
	| 0,6,6,7,
	| 0,4,7,0,
	| 4,0,0,6,
	| 0,5,0,7,
	| 4,2,1,4,
	| 3,3,2,2,
	| 5,2,1,7,
	| 0,3,0,4,
	| 0,5,4,2,
	| 6,0,6,1,
	| 7,1,0,6,
	| 2,7,1,0,
	| 5,0,0,7,
	| 0,6,7,0,
	| 0,7,7,0,
	| 3,6,4,0,
	| 5,5,0,0,
	| 0,5,4,0,
	| 2,0,5,4,
	| 0,4,0,6,
	| 6,4,5,0,
	| 3,6,4,1,
	| 0,0,7,6,
	| 6,0,0,7,
	| 0,7,4,0,
	| 5,3,4,5,
	| 3,3,3,1,
	| 0,3,4,5,
	| 0,0,7,3,
	| 6,0,4,6,
	| 6,0,6,0,
	| 0,3,4,7,
	| 6,0,5,0,
	| 0,7,0,5,
	| 4,5,0,0,
	| 0,0,0,0, |];

nResources = 45;
mastery = [| true,true,false,false,
	| true,true,false,false,
	| false,true,false,false,
	| false,false,true,false,
	| false,false,false,true,
	| false,true,false,false,
	| false,true,true,true,
	| true,true,false,false,
	| true,false,false,true,
	| false,true,false,false,
	| true,true,true,false,
	| true,true,false,false,
	| true,true,false,true,
	| false,true,false,true,
	| false,false,true,true,
	| true,true,true,false,
	| false,true,false,true,
	| true,true,false,false,
	| false,false,true,false,
	| false,false,false,true,
	| false,true,true,false,
	| false,true,false,false,
	| false,false,true,false,
	| false,false,false,true,
	| true,false,true,false,
	| true,false,false,true,
	| false,false,true,true,
	| false,true,false,true,
	| true,false,false,true,
	| true,false,false,true,
	| false,true,true,false,
	| false,true,true,false,
	| false,false,true,true,
	| false,false,true,false,
	| true,true,false,true,
	| false,true,false,false,
	| true,true,true,false,
	| false,false,true,false,
	| false,false,false,true,
	| true,false,true,true,
	| true,true,false,false,
	| false,true,true,true,
	| false,true,false,false,
	| false,false,true,false,
	| false,false,true,false, |];

nPrecs = 61;
pred = [1,1,1,2,2,2,3,4,4,5,5,6,6,6,7,7,7,8,8,8,9,9,10,10,10,11,12,13,14,15,16,17,18,18,19,20,20,20,21,21,22,23,24,25,26,26,27,28,29,30,31,32,33,34,35,36,37,38,39,40,41];
succ = [2,3,4,29,5,6,34,36,7,10,26,9,27,8,28,14,38,21,13,15,11,16,17,18,12,22,20,41,20,40,19,33,19,39,22,37,23,24,30,31,25,35,27,32,36,37,28,32,33,41,38,40,34,39,40,38,39,41,42,42,42];

nUnrels = 548;
unpred = [2,2,2,2,3,3,3,3,3,3,3,3,3,3,3,3,3,3,3,3,3,3,3,3,3,3,3,3,3,3,3,3,3,3,3,3,3,3,3,3,4,4,4,4,4,4,4,4,4,4,4,4,4,4,4,4,4,4,4,4,4,4,5,5,5,5,5,5,5,5,5,5,5,5,5,6,6,6,6,6,6,6,6,6,6,6,6,6,6,6,6,6,7,7,7,7,7,7,7,7,7,7,7,7,7,7,7,7,7,7,7,7,7,8,8,8,8,8,8,8,8,8,8,8,8,8,8,8,8,8,8,8,8,8,8,8,8,8,9,9,9,9,9,9,9,9,9,9,9,9,9,9,9,9,9,9,9,9,9,9,9,9,9,10,10,10,10,10,10,10,10,10,10,10,10,10,11,11,11,11,11,11,11,11,11,11,11,11,11,11,11,11,11,11,11,11,11,11,11,11,11,11,12,12,12,12,12,12,12,12,12,12,12,12,12,12,12,12,12,12,12,13,13,13,13,13,13,13,13,13,13,13,13,13,13,13,13,13,13,13,13,13,13,13,13,13,13,13,14,14,14,14,14,14,14,14,14,14,14,14,14,14,14,14,14,15,15,15,15,15,15,15,15,15,15,15,15,15,15,15,15,15,15,15,15,15,15,15,15,15,16,16,16,16,16,16,16,16,16,16,16,16,16,16,16,16,16,16,16,16,17,17,17,17,17,17,17,17,17,17,17,17,17,17,17,17,17,17,17,17,17,18,18,18,18,18,18,18,18,18,18,18,18,18,18,18,18,18,19,19,19,19,19,19,19,19,19,19,19,19,19,19,19,19,19,19,20,20,20,20,20,20,20,20,20,20,20,20,21,21,21,21,21,21,21,21,21,21,21,21,21,21,21,21,22,22,22,22,22,22,22,22,22,22,22,22,22,22,22,22,23,23,23,23,23,23,23,23,23,23,23,23,23,23,23,23,24,24,24,24,24,24,24,24,24,24,24,24,24,25,25,25,25,25,25,25,25,25,25,25,25,25,25,26,26,26,26,26,26,26,26,26,26,27,27,27,27,27,27,27,27,27,27,27,28,28,28,28,28,28,28,28,28,28,28,29,29,29,29,29,29,29,29,29,30,30,30,30,30,30,30,30,30,30,31,31,31,31,31,31,31,31,32,32,32,32,32,32,32,32,33,33,33,33,33,33,34,34,34,34,34,34,35,35,35,35,35,36,36,36,37,37,37,38,38,39,39,40];
unsucc = [3,4,7,14,4,5,6,7,8,9,10,11,12,13,14,15,16,17,18,19,20,21,22,23,24,25,26,27,28,29,30,31,32,33,35,36,37,38,40,41,5,6,8,9,10,11,12,13,15,16,17,18,19,21,22,25,26,29,30,31,33,34,6,7,8,9,11,13,14,15,16,21,29,30,31,7,10,12,14,17,18,20,23,24,26,29,33,34,35,36,37,39,8,9,10,11,12,13,15,16,17,18,19,21,22,25,26,29,30,31,33,34,36,9,10,11,12,14,16,17,18,19,20,22,23,24,25,26,27,28,29,32,33,34,35,36,37,39,10,12,13,14,15,17,18,20,21,23,24,26,27,28,29,30,31,33,34,35,36,37,38,39,41,11,13,14,15,16,21,26,29,30,31,36,38,41,12,13,14,15,16,17,18,19,20,21,23,24,26,27,28,29,30,31,33,34,35,36,37,38,39,41,13,14,15,16,17,18,19,21,22,25,26,29,30,31,33,34,36,38,41,14,15,16,17,18,19,20,21,22,23,24,25,26,27,28,29,30,31,32,33,34,35,36,37,38,39,40,15,16,17,18,19,21,22,25,26,29,30,31,33,34,36,38,41,16,17,18,19,20,21,22,23,24,25,26,27,28,29,30,31,32,33,34,35,36,37,38,39,41,17,18,20,21,23,24,26,27,28,29,30,31,33,34,35,36,37,38,39,41,18,19,20,21,22,23,24,25,26,27,28,29,30,31,32,35,36,37,38,40,41,20,21,23,24,26,27,28,29,30,31,33,34,35,36,37,38,41,20,21,23,24,26,27,28,29,30,31,33,34,35,36,37,38,39,41,21,22,25,26,29,30,31,33,34,36,38,41,22,23,24,25,26,27,28,29,32,33,34,35,36,37,39,40,23,24,26,27,28,29,30,31,33,34,35,36,37,38,39,41,24,25,26,27,28,29,30,31,32,33,34,36,37,38,39,41,25,26,29,30,31,33,34,35,36,37,38,39,41,26,27,28,29,30,31,33,34,35,36,37,38,39,41,27,28,29,30,31,32,33,34,35,40,29,30,31,33,34,35,36,37,38,39,41,29,30,31,33,34,35,36,37,38,39,41,30,31,32,35,36,37,38,40,41,31,32,33,34,35,36,37,38,39,40,32,33,34,35,36,37,39,40,33,34,35,36,37,38,39,41,35,36,37,38,40,41,35,36,37,38,40,41,36,37,38,39,41,37,39,40,38,40,41,39,40,40,41,41];

USEFUL_RES = [{},
	{1,2,3,5,6,7,8,9,10,11,12,13,14,15,16,17,18,20,21,22,24,25,26,27,28,29,30,31,32,33,35,36,37,39,40,41,42,43},
	{1,2,3,4,5,6,7,8,9,10,11,12,13,14,15,16,17,18,19,20,21,22,23,24,25,26,27,28,29,30,31,32,33,34,35,36,37,38,39,40,41,42,43,44,45},
	{1,2,4,5,7,8,9,11,12,13,14,15,16,17,18,19,20,21,23,24,25,26,27,28,29,30,31,32,33,34,35,37,38,39,40,41,42,44,45},
	{1,2,3,4,6,7,8,10,11,12,13,14,15,16,17,18,19,21,22,23,25,27,28,31,32,33,34,35,36,37,38,40,41,42,43,44,45},
	{1,2,3,4,5,6,7,8,9,10,11,12,13,14,15,16,17,18,19,20,21,22,23,24,25,26,27,28,29,30,31,32,33,34,35,36,37,38,39,40,41,42,43,44,45},
	{1,2,3,4,5,6,7,8,9,10,11,12,13,14,15,16,17,18,19,20,21,22,23,24,25,26,27,28,29,30,31,32,33,34,35,36,37,38,39,40,41,42,43,44,45},
	{1,2,3,4,6,7,8,10,11,12,13,14,15,16,17,18,19,21,22,23,25,27,28,31,32,33,34,35,36,37,38,40,41,42,43,44,45},
	{1,2,5,7,8,9,11,12,13,14,15,16,17,18,20,24,25,26,27,28,29,30,33,35,37,39,40,41,42},
	{1,2,3,5,6,7,8,9,10,11,12,13,14,15,16,17,18,20,21,22,24,26,27,28,29,30,31,32,33,35,36,37,39,40,41,42,43},
	{1,2,3,4,5,6,7,8,9,10,11,12,13,14,15,16,17,18,19,20,21,22,23,24,25,26,27,28,29,30,31,32,33,34,35,36,37,38,39,40,41,42,43,44,45},
	{1,2,3,4,5,6,7,8,9,10,11,12,13,14,15,16,17,18,19,20,21,22,23,24,25,26,27,28,29,30,31,32,33,34,35,36,37,38,39,40,41,42,43,44,45},
	{1,2,3,4,5,6,7,8,9,10,11,12,13,14,15,16,17,18,19,20,21,22,23,24,25,26,27,28,29,30,31,32,33,34,35,36,37,38,39,40,41,42,43,44,45},
	{1,2,3,5,6,7,8,9,10,11,12,13,14,15,16,17,18,20,21,22,24,26,27,28,29,30,31,32,33,35,36,37,39,40,41,42,43},
	{1,2,3,4,5,6,7,8,9,10,11,12,13,14,15,16,17,18,19,20,21,22,23,24,25,26,27,28,29,30,31,32,33,34,35,36,37,38,39,40,41,42,43,44,45},
	{1,2,4,5,7,8,9,11,12,13,14,15,16,17,18,19,20,21,23,24,25,26,27,28,29,30,31,32,33,34,35,37,38,39,40,41,42,44,45},
	{1,2,3,5,6,7,8,9,10,11,12,13,14,15,16,17,18,20,21,22,24,25,26,27,28,29,30,31,32,33,35,36,37,39,40,41,42,43},
	{1,2,3,4,6,7,8,9,10,11,12,13,14,15,16,17,18,19,21,22,23,25,26,27,28,29,30,31,32,33,34,35,36,37,38,40,41,42,43,44,45},
	{1,2,5,7,8,9,11,12,13,14,15,16,17,18,20,24,25,26,27,28,29,30,33,35,37,39,40,41,42},
	{1,2,3,4,6,7,8,10,11,12,13,14,15,16,17,18,19,21,22,23,25,27,28,31,32,33,34,35,36,37,38,40,41,42,43,44,45},
	{1,2,3,4,6,7,8,10,11,12,13,14,15,16,17,18,19,21,22,23,25,27,28,31,32,33,34,35,36,37,38,40,41,42,43,44,45},
	{1,2,3,4,6,7,8,9,10,11,12,13,14,15,16,17,18,19,21,22,23,25,26,27,28,29,30,31,32,33,34,35,36,37,38,40,41,42,43,44,45},
	{1,2,3,6,7,8,9,10,11,12,13,14,16,17,18,21,22,25,26,28,29,30,31,32,35,36,37,40,41,42,43},
	{1,2,3,4,6,7,8,10,11,12,13,14,15,16,17,18,19,21,22,23,25,27,28,31,32,33,34,35,36,37,38,40,41,42,43,44,45},
	{1,2,4,5,7,8,9,11,12,13,14,15,16,17,18,19,20,21,23,24,25,26,27,28,29,30,31,32,33,34,35,37,38,39,40,41,42,44,45},
	{1,2,3,5,6,7,8,9,10,11,12,13,14,15,16,17,18,20,21,22,24,26,27,28,29,30,31,32,33,35,36,37,39,40,41,42,43},
	{1,2,3,4,6,7,8,9,10,11,12,13,14,15,16,17,18,19,21,22,23,25,26,27,28,29,30,31,32,33,34,35,36,37,38,40,41,42,43,44,45},
	{1,2,3,4,5,6,7,8,9,10,11,12,13,14,15,16,17,18,19,20,21,22,23,24,25,26,27,28,29,30,31,32,33,34,35,36,37,38,39,40,41,42,43,44,45},
	{4,5,7,9,11,13,14,15,16,17,19,20,21,23,24,25,26,27,28,29,30,31,32,33,34,35,37,38,39,40,42,44,45},
	{1,2,5,7,8,9,11,12,13,14,15,16,17,18,20,24,25,26,27,28,29,30,33,35,37,39,40,41,42},
	{1,2,3,4,6,7,8,10,11,12,13,14,15,16,17,18,19,21,22,23,25,27,28,31,32,33,34,35,36,37,38,40,41,42,43,44,45},
	{1,2,3,4,5,6,7,8,9,10,11,12,13,14,15,16,17,18,19,20,21,22,23,24,25,26,27,28,29,30,31,32,33,34,35,36,37,38,39,40,41,42,43,44,45},
	{1,2,3,4,5,6,7,8,9,10,11,12,13,14,15,16,17,18,19,20,21,22,23,24,25,26,27,28,29,30,31,32,33,34,35,36,37,38,39,40,41,42,43,44,45},
	{1,2,3,4,5,6,7,8,9,10,11,12,13,14,15,16,17,18,19,20,21,22,23,24,25,26,27,28,29,30,31,32,33,34,35,36,37,38,39,40,41,42,43,44,45},
	{4,5,7,9,11,13,14,15,16,17,19,20,21,23,24,25,26,27,28,29,30,31,32,33,34,35,37,38,39,40,42,44,45},
	{1,2,4,5,7,8,9,11,12,13,14,15,16,17,18,19,20,21,23,24,25,26,27,28,29,30,31,32,33,34,35,37,38,39,40,41,42,44,45},
	{1,2,4,7,8,9,11,12,13,15,16,18,19,21,23,25,26,27,29,30,31,32,33,34,35,37,38,40,41,42,44,45},
	{1,2,3,4,5,6,7,8,9,10,11,12,13,14,15,16,17,18,19,20,21,22,23,24,25,26,27,28,29,30,31,32,33,34,35,36,37,38,39,40,41,42,43,44,45},
	{1,2,4,7,8,9,11,12,13,15,16,18,19,21,23,25,26,27,29,30,31,32,33,34,35,37,38,40,41,42,44,45},
	{1,2,3,5,6,7,8,9,10,11,12,13,14,15,16,17,18,20,21,22,24,26,27,28,29,30,31,32,33,35,36,37,39,40,41,42,43},
	{1,2,3,6,7,8,9,10,11,12,13,14,16,17,18,21,22,25,26,28,29,30,31,32,35,36,37,40,41,42,43},
	{}];

POTENTIAL_ACT = [{2,3,4,5,6,7,8,9,10,11,12,13,14,15,16,17,18,19,20,21,22,23,24,25,26,27,28,30,31,32,33,34,36,37,38,39,40,41},
	{2,3,4,5,6,7,8,9,10,11,12,13,14,15,16,17,18,19,20,21,22,23,24,25,26,27,28,30,31,32,33,34,36,37,38,39,40,41},
	{2,3,5,6,7,8,10,11,12,13,14,15,17,18,20,21,22,23,24,26,27,28,31,32,33,34,38,40,41},
	{3,4,5,6,7,8,11,12,13,15,16,18,20,21,22,24,25,27,28,29,31,32,33,34,35,36,37,38,39},
	{2,3,4,6,7,9,10,11,12,13,14,15,16,17,19,25,26,28,29,30,32,33,34,35,36,38,40},
	{2,3,5,6,7,8,10,11,12,13,14,15,17,18,20,21,22,23,24,26,27,28,31,32,33,34,38,40,41},
	{2,3,4,5,6,7,8,9,10,11,12,13,14,15,16,17,18,19,20,21,22,23,24,25,26,27,28,29,30,31,32,33,34,35,36,37,38,39,40,41},
	{2,3,4,5,6,7,8,9,10,11,12,13,14,15,16,17,18,19,20,21,22,23,24,25,26,27,28,30,31,32,33,34,36,37,38,39,40,41},
	{2,3,4,6,7,9,10,11,12,13,14,15,16,17,18,19,22,23,25,26,27,28,29,30,32,33,34,35,36,37,38,39,40,41},
	{2,3,5,6,7,8,10,11,12,13,14,15,17,18,20,21,22,23,24,26,27,28,31,32,33,34,38,40,41},
	{2,3,4,5,6,7,8,9,10,11,12,13,14,15,16,17,18,19,20,21,22,23,24,25,26,27,28,29,30,31,32,33,34,35,36,37,38,39,40,41},
	{2,3,4,5,6,7,8,9,10,11,12,13,14,15,16,17,18,19,20,21,22,23,24,25,26,27,28,30,31,32,33,34,36,37,38,39,40,41},
	{2,3,4,5,6,7,8,9,10,11,12,13,14,15,16,17,18,19,20,21,22,23,24,25,26,27,28,29,30,31,32,33,34,35,36,37,38,39,40,41},
	{2,3,4,5,6,7,8,9,10,11,12,13,14,15,16,17,18,19,20,21,22,23,24,25,26,27,28,29,30,31,32,33,34,35,36,38,40,41},
	{2,3,4,5,6,7,8,9,10,11,12,13,14,15,16,17,18,19,20,21,22,24,25,26,27,28,29,30,31,32,33,34,35,36,37,38,39,40},
	{2,3,4,5,6,7,8,9,10,11,12,13,14,15,16,17,18,19,20,21,22,23,24,25,26,27,28,29,30,31,32,33,34,35,36,37,38,39,40,41},
	{2,3,4,5,6,7,8,9,10,11,12,13,14,15,16,17,18,19,20,21,22,23,24,25,26,27,28,29,30,31,32,33,34,35,36,38,40,41},
	{2,3,4,5,6,7,8,9,10,11,12,13,14,15,16,17,18,19,20,21,22,23,24,25,26,27,28,30,31,32,33,34,36,37,38,39,40,41},
	{3,4,5,6,7,8,11,12,13,15,16,18,20,21,22,24,25,27,28,29,31,32,33,34,35,36,37,38,39},
	{2,3,4,6,7,9,10,11,12,13,14,15,16,17,19,25,26,28,29,30,32,33,34,35,36,38,40},
	{2,3,4,5,6,7,8,10,11,12,13,14,15,16,17,18,20,21,22,23,24,25,26,27,28,29,31,32,33,34,35,36,37,38,39,40,41},
	{2,3,5,6,7,8,10,11,12,13,14,15,17,18,20,21,22,23,24,26,27,28,31,32,33,34,38,40,41},
	{3,4,5,6,7,8,11,12,13,15,16,18,20,21,22,24,25,27,28,29,31,32,33,34,35,36,37,38,39},
	{2,3,4,6,7,9,10,11,12,13,14,15,16,17,19,25,26,28,29,30,32,33,34,35,36,38,40},
	{2,3,4,5,6,7,8,9,11,12,13,15,16,17,18,19,20,21,22,23,24,25,27,28,29,30,31,32,33,34,35,36,37,38,39,41},
	{2,3,4,6,7,9,10,11,12,13,14,15,16,17,18,19,22,23,25,26,27,28,29,30,32,33,34,35,36,37,38,39,40,41},
	{2,3,4,5,6,7,8,9,10,11,12,13,14,15,16,17,18,19,20,21,22,24,25,26,27,28,29,30,31,32,33,34,35,36,37,38,39,40},
	{2,3,4,5,6,7,8,9,10,11,12,13,14,15,16,17,18,19,20,21,22,23,24,25,26,27,28,29,30,31,32,33,34,35,36,38,40,41},
	{2,3,4,6,7,9,10,11,12,13,14,15,16,17,18,19,22,23,25,26,27,28,29,30,32,33,34,35,36,37,38,39,40,41},
	{2,3,4,6,7,9,10,11,12,13,14,15,16,17,18,19,22,23,25,26,27,28,29,30,32,33,34,35,36,37,38,39,40,41},
	{2,3,4,5,6,7,8,10,11,12,13,14,15,16,17,18,20,21,22,23,24,25,26,27,28,29,31,32,33,34,35,36,37,38,39,40,41},
	{2,3,4,5,6,7,8,10,11,12,13,14,15,16,17,18,20,21,22,23,24,25,26,27,28,29,31,32,33,34,35,36,37,38,39,40,41},
	{2,3,4,5,6,7,8,9,10,11,12,13,14,15,16,17,18,19,20,21,22,24,25,26,27,28,29,30,31,32,33,34,35,36,37,38,39,40},
	{3,4,5,6,7,8,11,12,13,15,16,18,20,21,22,24,25,27,28,29,31,32,33,34,35,36,37,38,39},
	{2,3,4,5,6,7,8,9,10,11,12,13,14,15,16,17,18,19,20,21,22,23,24,25,26,27,28,29,30,31,32,33,34,35,36,37,38,39,40,41},
	{2,3,5,6,7,8,10,11,12,13,14,15,17,18,20,21,22,23,24,26,27,28,31,32,33,34,38,40,41},
	{2,3,4,5,6,7,8,9,10,11,12,13,14,15,16,17,18,19,20,21,22,23,24,25,26,27,28,29,30,31,32,33,34,35,36,37,38,39,40,41},
	{3,4,5,6,7,8,11,12,13,15,16,18,20,21,22,24,25,27,28,29,31,32,33,34,35,36,37,38,39},
	{2,3,4,6,7,9,10,11,12,13,14,15,16,17,19,25,26,28,29,30,32,33,34,35,36,38,40},
	{2,3,4,5,6,7,8,9,10,11,12,13,14,15,16,17,18,19,20,21,22,23,24,25,26,27,28,29,30,31,32,33,34,35,36,37,38,39,40,41},
	{2,3,4,5,6,7,8,9,10,11,12,13,14,15,16,17,18,19,20,21,22,23,24,25,26,27,28,30,31,32,33,34,36,37,38,39,40,41},
	{2,3,4,5,6,7,8,9,10,11,12,13,14,15,16,17,18,19,20,21,22,23,24,25,26,27,28,29,30,31,32,33,34,35,36,37,38,39,40,41},
	{2,3,5,6,7,8,10,11,12,13,14,15,17,18,20,21,22,23,24,26,27,28,31,32,33,34,38,40,41},
	{3,4,5,6,7,8,11,12,13,15,16,18,20,21,22,24,25,27,28,29,31,32,33,34,35,36,37,38,39},
	{3,4,5,6,7,8,11,12,13,15,16,18,20,21,22,24,25,27,28,29,31,32,33,34,35,36,37,38,39}];
